SDVRP instances/custom_instances/p02_16_splitx10_0.vrp
NAME:p02_16_splitx10_
BEST_KNOWN: 0
COMMENT: 0
DIMENSION: 337
CAPACITY: 1400
EDGE_WEIGHT_FORMAT: FUNCTION
EDGE_WEIGHT_TYPE: EXACT_2D
NODE_COORD_SECTION
1 0.00000 0.00000
2 44 23
3 44 23
4 44 23
5 44 23
6 44 23
7 44 23
8 44 23
9 24 -13
10 24 -13
11 24 -13
12 24 -13
13 24 -13
14 24 -13
15 -15 -42
16 -15 -42
17 -15 -42
18 -15 -42
19 -15 -42
20 -15 -42
21 -23 38
22 -23 38
23 -23 38
24 -23 38
25 -23 38
26 -23 38
27 44 5
28 44 5
29 44 5
30 44 5
31 44 5
32 44 5
33 44 5
34 20 -20
35 20 -20
36 20 -20
37 20 -20
38 -45 -33
39 -45 -33
40 -45 -33
41 -45 -33
42 -45 -33
43 12 26
44 12 26
45 12 26
46 12 26
47 12 26
48 12 26
49 12 26
50 18 28
51 18 28
52 18 28
53 18 28
54 -7 -34
55 -7 -34
56 -7 -34
57 -7 -34
58 -7 -34
59 -7 -34
60 35 -24
61 35 -24
62 35 -24
63 35 -24
64 35 -24
65 -48 38
66 -48 38
67 -48 38
68 29 -13
69 29 -13
70 29 -13
71 28 -43
72 28 -43
73 28 -43
74 28 -43
75 28 -43
76 28 -43
77 28 -43
78 28 -43
79 42 -44
80 42 -44
81 18 -33
82 18 -33
83 18 -33
84 18 -33
85 18 -33
86 18 -33
87 -15 -16
88 -15 -16
89 -15 -16
90 -15 -16
91 -15 -16
92 -15 -16
93 17 -4
94 17 -4
95 17 -4
96 17 -4
97 17 -4
98 -16 8
99 -16 8
100 -16 8
101 -16 8
102 -16 8
103 -48 -40
104 -48 -40
105 -48 -40
106 -48 -40
107 -48 -40
108 -14 38
109 -14 38
110 -6 -50
111 -6 -50
112 -6 -50
113 -6 -50
114 -6 -50
115 -6 -50
116 34 34
117 34 34
118 34 34
119 34 34
120 34 34
121 34 34
122 34 34
123 -32 19
124 -32 19
125 -32 19
126 -32 19
127 -32 19
128 -17 -28
129 -17 -28
130 -17 31
131 -17 31
132 -17 31
133 1 -33
134 1 -33
135 1 -33
136 1 -33
137 1 -33
138 -3 10
139 -3 10
140 -3 10
141 -3 10
142 -3 10
143 -3 10
144 11 -10
145 11 -10
146 11 -10
147 11 -10
148 11 -10
149 11 -10
150 11 -10
151 -33 13
152 -33 13
153 -33 13
154 -33 13
155 -24 8
156 -24 8
157 -24 8
158 -24 8
159 25 49
160 25 49
161 25 49
162 25 49
163 25 49
164 43 -34
165 43 -34
166 -40 49
167 -40 49
168 -40 49
169 -40 49
170 -40 49
171 -40 49
172 15 -13
173 15 -13
174 15 -13
175 15 -13
176 15 -13
177 33 -3
178 33 -3
179 33 -3
180 33 -3
181 33 -3
182 33 -3
183 -28 -35
184 -28 -35
185 -28 -35
186 -28 -35
187 47 44
188 47 44
189 47 44
190 47 44
191 -50 -25
192 -50 -25
193 -50 -25
194 -20 -15
195 -20 -15
196 -20 -15
197 -20 -15
198 -20 -15
199 -21 -49
200 -21 -49
201 -21 -49
202 -21 -49
203 -21 -49
204 0 18
205 0 18
206 0 18
207 0 18
208 -31 -28
209 -31 -28
210 -31 -28
211 -31 -28
212 -31 -28
213 -16 -32
214 -16 -32
215 -16 -32
216 -16 -32
217 -16 -32
218 34 -5
219 34 -5
220 34 -5
221 0 31
222 0 31
223 0 31
224 21 -29
225 21 -29
226 21 -29
227 21 -29
228 21 -29
229 39 -30
230 39 -30
231 39 -30
232 -26 -28
233 -26 -28
234 -1 -36
235 -1 -36
236 -1 -36
237 -1 -36
238 -1 -36
239 -1 -36
240 49 50
241 49 50
242 49 50
243 49 50
244 49 50
245 49 50
246 -7 -5
247 -7 -5
248 -7 -5
249 -7 -5
250 -45 -38
251 -45 -38
252 -45 -38
253 -45 -38
254 -45 -38
255 8 44
256 8 44
257 8 44
258 8 44
259 -17 -22
260 -17 -22
261 -17 -22
262 -17 -22
263 42 26
264 42 26
265 42 26
266 42 26
267 42 26
268 42 26
269 -26 -20
270 -26 -20
271 -24 -2
272 -24 -2
273 -24 -2
274 -24 -2
275 -46 17
276 -46 17
277 -46 17
278 -46 17
279 -38 -35
280 -38 -35
281 4 -13
282 4 -13
283 4 -13
284 4 -13
285 4 -13
286 4 -13
287 4 -13
288 36 17
289 36 17
290 -49 29
291 -49 29
292 -49 29
293 49 -15
294 49 -15
295 49 -15
296 49 -15
297 49 -15
298 -10 11
299 -10 11
300 -10 11
301 -10 11
302 38 17
303 38 17
304 38 17
305 -34 42
306 -34 42
307 -34 42
308 -34 42
309 -34 42
310 39 -21
311 39 -21
312 39 -21
313 39 -21
314 39 -21
315 39 -21
316 39 -21
317 -30 49
318 -30 49
319 -30 49
320 -30 49
321 50 -6
322 50 -6
323 50 -6
324 50 -6
325 48 4
326 48 4
327 48 4
328 29 10
329 29 10
330 29 10
331 29 10
332 29 10
333 -39 10
334 -39 10
335 -39 10
336 -39 10
337 -42 -22
DEMAND_SECTION
1 0
2 140
3 70
4 14
5 14
6 14
7 14
8 4
9 140
10 70
11 14
12 14
13 14
14 8
15 280
16 140
17 70
18 14
19 14
20 2
21 280
22 14
23 14
24 14
25 14
26 4
27 280
28 140
29 14
30 14
31 14
32 14
33 4
34 280
35 70
36 14
37 6
38 280
39 70
40 14
41 14
42 12
43 280
44 280
45 70
46 14
47 14
48 14
49 8
50 280
51 14
52 14
53 12
54 280
55 14
56 14
57 14
58 14
59 4
60 280
61 140
62 70
63 14
64 6
65 140
66 70
67 10
68 280
69 140
70 10
71 280
72 280
73 70
74 14
75 14
76 14
77 14
78 4
79 280
80 70
81 280
82 14
83 14
84 14
85 14
86 4
87 280
88 280
89 70
90 14
91 14
92 12
93 280
94 140
95 14
96 14
97 2
98 280
99 140
100 70
101 14
102 6
103 280
104 140
105 70
106 14
107 6
108 280
109 70
110 280
111 280
112 70
113 14
114 14
115 2
116 280
117 140
118 70
119 14
120 14
121 14
122 8
123 280
124 140
125 14
126 14
127 12
128 280
129 70
130 140
131 70
132 10
133 280
134 140
135 14
136 14
137 2
138 140
139 70
140 14
141 14
142 14
143 8
144 280
145 70
146 14
147 14
148 14
149 14
150 4
151 280
152 140
153 14
154 6
155 280
156 14
157 14
158 12
159 280
160 140
161 14
162 14
163 2
164 280
165 280
166 280
167 280
168 70
169 14
170 14
171 12
172 280
173 140
174 14
175 14
176 12
177 280
178 280
179 14
180 14
181 14
182 8
183 140
184 14
185 14
186 12
187 280
188 280
189 70
190 10
191 280
192 280
193 70
194 280
195 140
196 70
197 14
198 6
199 140
200 70
201 14
202 14
203 12
204 280
205 280
206 70
207 10
208 280
209 280
210 70
211 14
212 6
213 140
214 70
215 14
216 14
217 12
218 280
219 14
220 6
221 280
222 70
223 10
224 280
225 280
226 14
227 14
228 12
229 280
230 70
231 10
232 280
233 140
234 280
235 70
236 14
237 14
238 14
239 8
240 280
241 14
242 14
243 14
244 14
245 4
246 280
247 14
248 14
249 12
250 140
251 70
252 14
253 14
254 12
255 140
256 70
257 14
258 6
259 280
260 14
261 14
262 2
263 280
264 14
265 14
266 14
267 14
268 4
269 280
270 140
271 280
272 14
273 14
274 12
275 140
276 14
277 14
278 2
279 280
280 70
281 280
282 70
283 14
284 14
285 14
286 14
287 4
288 140
289 70
290 280
291 140
292 70
293 280
294 70
295 14
296 14
297 2
298 280
299 140
300 70
301 10
302 280
303 14
304 6
305 280
306 70
307 140
308 70
309 10
310 140
311 70
312 14
313 14
314 14
315 14
316 4
317 280
318 14
319 14
320 12
321 140
322 70
323 14
324 6
325 140
326 70
327 10
328 280
329 70
330 14
331 14
332 2
333 280
334 140
335 14
336 6
337 280
DEPOT_SECTION
1
-1
EOF