SDVRP instances/custom_instances/p02_16_splitx10_0.sol
336 -12 13 11 8 10 9 62 59 61 60 63 164 163 -17 16 18 198 202 199 201 200 113 114 111 109 110 112 57 54 58 55 53 56 -19 14 15 216 212 214 215 213 128 127 260 259 258 261 -25 20 23 21 22 24 316 317 319 318 168 167 169 166 170 165 307 -32 29 27 30 28 31 26 324 326 325 303 302 301 327 330 329 331 328 -34 36 35 33 224 227 225 226 223 85 82 81 83 84 80 -39 41 40 103 106 105 102 104 249 252 250 253 251 278 279 184 183 185 182 88 -44 42 47 43 162 160 158 161 159 255 257 256 254 221 -48 45 46 50 49 52 51 241 239 243 240 242 244 187 188 186 189 -67 68 69 312 311 313 314 315 310 309 296 294 293 295 292 323 322 321 320 -70 75 73 71 72 74 76 77 78 79 228 230 229 -87 86 194 193 197 195 196 246 245 248 247 -90 91 89 232 231 211 210 207 209 208 268 -95 93 92 94 96 219 218 217 176 181 178 179 177 180 -101 97 100 99 98 154 272 271 273 270 -119 118 117 121 120 116 115 262 267 263 265 264 266 2 5 6 7 1 3 4 288 287 -124 122 126 125 123 153 151 152 150 332 334 335 333 157 156 155 -139 138 140 142 141 137 204 205 203 206 -144 145 149 147 143 148 146 172 171 173 175 174 -220 222 107 108 129 131 130 300 298 299 297 -235 236 234 233 238 237 136 132 134 133 135 282 284 283 281 286 285 280 -269 38 37 192 191 190 336 -277 275 276 274 291 289 290 64 65 66 308 304 305 306 0 





OBJ=
2248.336
BEST_KNOWN=
0.000